NAME : HealthcareRouting
TYPE : CVRP
DIMENSION : 11
EDGE_WEIGHT_TYPE : EUC_2D
CAPACITY : 10000
NODE_COORD_SECTION
1 409471 435602
2 409351 435734
3 409408 436075
4 408906 434723
5 409262 434873
6 409262 435017
7 409426 434622
8 409038 435235
9 409812 435857
10 409711 436281
11 410120 436189
DEMAND_SECTION
1 0
2 715
3 717
4 630
5 701
6 711
7 507
8 445
9 600
10 717
11 64
DEPOT_SECTION
1
-1
EOF